NAME : A-n45-k7-30
TYPE : VRP-D
DIMENSION : 30
CAPACITY : 100
NODE_COORD_SECTION 
 1 61 99
 2 95 7
 3 45 87
 4 15 47
 5 39 75
 6 55 23
 7 29 71
 8 87 79
 9 75 63
 10 65 61
 11 73 35
 12 17 35
 13 39 99
 14 75 77
 15 49 37
 16 85 31
 17 89 71
 18 89 43
 19 79 81
 20 45 5
 21 93 69
 22 49 69
 23 63 25
 24 93 33
 25 39 45
 26 89 33
 27 47 77
 28 29 19
 29 13 65
 30 33 9
DEMAND_SECTION 
1 0 
2 14 
3 1 
4 16 
5 23 
6 12 
7 6 
8 5 
9 1 
10 13 
11 20 
12 14 
13 18 
14 7 
15 8 
16 21 
17 8 
18 24 
19 20 
20 19 
21 13 
22 3 
23 26 
24 17 
25 22 
26 8 
27 16 
28 20 
29 12 
30 22 
DEPOT_SECTION 
 1  
 -1  
EOF 
